% Logging successfully configured
%%%mzn-stat: initTime=0.033557431
%%%mzn-stat: objective=435
%%%mzn-stat: nodes=8104
%%%mzn-stat: restarts=0
%%%mzn-stat: peakDepth=2283
%%%mzn-stat: solveTime=0.981049085
%%%mzn-stat: variables=3269
%%%mzn-stat: propagators=7712
%%%mzn-stat: failures=3749
%%%mzn-stat: propagations=2451866
%%%mzn-stat: nogoods=3749
%%%mzn-stat: numAtomicConstraintsPropagated=0
%%%mzn-stat: circuitNumber4951PropagationsThatFoundConflict=1086
%%%mzn-stat: circuitNumber4951TotalFixedEdgesAtConflict=98847
%%%mzn-stat: circuitNumber4951NumberOfConflicts=1086
%%%mzn-stat: circuitNumber4951PropagationsThatPruned=1370
%%%mzn-stat: circuitNumber4951PropagationsTotal=7127
%%%mzn-stat: AverageConflictSize=22.614030408108828
%%%mzn-stat: NumUnitNogoodsLearned=0
%%%mzn-stat: AverageLearnedNogoodLength=37.395305414777276
%%%mzn-stat: AverageBacktrackAmount=0
%%%mzn-stat: AverageLbd=29.26993865030675
%%%mzn-stat: 2AutonomousSearchNumBackupCalled=2195
%%%mzn-stat: 2AutonomousSearchNumPredicatesRemoved=0
%%%mzn-stat: 2AutonomousSearchNumCalls=2196
%%%mzn-stat: 2AutonomousSearchNumPredicatesAdded=1181
%%%mzn-stat: 2AutonomousSearchAverageSizeOfHeap=0.5377959927140255
%%%mzn-stat: 2AutonomousSearchNumAssignedPredicatesEncountered=1181
%%%mzn-stat-end
maxleg = 435;
succ = array1d(1..100,[3, 4, 6, 5, 7, 19, 11, 2, 8, 1, 13, 14, 18, 15, 23, 21, 10, 16, 9, 27, 22, 12, 24, 28, 17, 30, 35, 31, 25, 39, 34, 20, 37, 33, 36, 40, 44, 48, 41, 43, 51, 26, 46, 55, 32, 47, 59, 29, 52, 38, 45, 54, 42, 50, 57, 53, 58, 76, 49, 61, 63, 60, 68, 69, 56, 79, 62, 80, 65, 64, 67, 75, 70, 73, 71, 66, 83, 74, 81, 88, 87, 100, 84, 89, 78, 82, 90, 94, 91, 72, 93, 98, 86, 95, 99, 92, 85, 77, 96, 97]);
% time elapsed: 15.60 s
----------
%%%mzn-stat: initTime=0.033557431
%%%mzn-stat: objective=420
%%%mzn-stat: nodes=92312
%%%mzn-stat: restarts=0
%%%mzn-stat: peakDepth=2283
%%%mzn-stat: solveTime=46.848673471
%%%mzn-stat: variables=3269
%%%mzn-stat: propagators=7712
%%%mzn-stat: failures=79176
%%%mzn-stat: propagations=55117226
%%%mzn-stat: nogoods=79176
%%%mzn-stat: numAtomicConstraintsPropagated=0
%%%mzn-stat: circuitNumber4951PropagationsThatFoundConflict=6044
%%%mzn-stat: circuitNumber4951TotalFixedEdgesAtConflict=555329
%%%mzn-stat: circuitNumber4951NumberOfConflicts=6044
%%%mzn-stat: circuitNumber4951PropagationsThatPruned=72888
%%%mzn-stat: circuitNumber4951PropagationsTotal=154836
%%%mzn-stat: AverageConflictSize=11.102720521370113
%%%mzn-stat: NumUnitNogoodsLearned=0
%%%mzn-stat: AverageLearnedNogoodLength=81.08618773365666
%%%mzn-stat: AverageBacktrackAmount=0
%%%mzn-stat: AverageLbd=64.02783671819743
%%%mzn-stat: 2AutonomousSearchNumBackupCalled=4361
%%%mzn-stat: 2AutonomousSearchNumPredicatesRemoved=0
%%%mzn-stat: 2AutonomousSearchNumCalls=4363
%%%mzn-stat: 2AutonomousSearchNumPredicatesAdded=2684
%%%mzn-stat: 2AutonomousSearchAverageSizeOfHeap=0.6284666513866606
%%%mzn-stat: 2AutonomousSearchNumAssignedPredicatesEncountered=2742
%%%mzn-stat-end
maxleg = 420;
succ = array1d(1..100,[3, 4, 6, 5, 7, 19, 11, 2, 8, 1, 13, 14, 18, 15, 23, 21, 10, 16, 9, 27, 22, 12, 24, 28, 17, 30, 35, 31, 25, 39, 34, 20, 37, 33, 36, 40, 44, 48, 41, 43, 51, 26, 46, 55, 32, 47, 59, 29, 52, 38, 45, 54, 42, 50, 57, 53, 58, 76, 49, 61, 63, 60, 68, 69, 56, 79, 62, 80, 65, 64, 67, 75, 70, 73, 85, 66, 83, 74, 81, 88, 87, 97, 84, 89, 71, 82, 90, 94, 91, 72, 93, 98, 86, 95, 99, 92, 100, 77, 96, 78]);
% time elapsed: 61.48 s
----------
%%%mzn-stat: initTime=0.033557431
%%%mzn-stat: objective=404
%%%mzn-stat: nodes=152577
%%%mzn-stat: restarts=0
%%%mzn-stat: peakDepth=2283
%%%mzn-stat: solveTime=80.176599176
%%%mzn-stat: variables=3269
%%%mzn-stat: propagators=7712
%%%mzn-stat: failures=132632
%%%mzn-stat: propagations=92646916
%%%mzn-stat: nogoods=132632
%%%mzn-stat: numAtomicConstraintsPropagated=0
%%%mzn-stat: circuitNumber4951PropagationsThatFoundConflict=9017
%%%mzn-stat: circuitNumber4951TotalFixedEdgesAtConflict=827158
%%%mzn-stat: circuitNumber4951NumberOfConflicts=9017
%%%mzn-stat: circuitNumber4951PropagationsThatPruned=126114
%%%mzn-stat: circuitNumber4951PropagationsTotal=261000
%%%mzn-stat: AverageConflictSize=10.629840460823933
%%%mzn-stat: NumUnitNogoodsLearned=0
%%%mzn-stat: AverageLearnedNogoodLength=82.60753815067254
%%%mzn-stat: AverageBacktrackAmount=0
%%%mzn-stat: AverageLbd=65.18746607153628
%%%mzn-stat: 2AutonomousSearchNumBackupCalled=6541
%%%mzn-stat: 2AutonomousSearchNumPredicatesRemoved=0
%%%mzn-stat: 2AutonomousSearchNumCalls=6544
%%%mzn-stat: 2AutonomousSearchNumPredicatesAdded=4166
%%%mzn-stat: 2AutonomousSearchAverageSizeOfHeap=0.6583129584352079
%%%mzn-stat: 2AutonomousSearchNumAssignedPredicatesEncountered=4308
%%%mzn-stat-end
maxleg = 404;
succ = array1d(1..100,[3, 4, 6, 5, 7, 19, 11, 2, 8, 1, 13, 14, 18, 15, 23, 21, 10, 16, 9, 27, 22, 12, 24, 28, 17, 30, 35, 31, 25, 39, 34, 26, 37, 33, 36, 40, 44, 48, 41, 43, 51, 20, 46, 55, 32, 47, 59, 29, 52, 38, 42, 54, 45, 50, 57, 53, 58, 76, 49, 61, 63, 60, 68, 69, 56, 79, 62, 80, 65, 64, 67, 75, 70, 73, 85, 66, 83, 74, 81, 88, 87, 97, 84, 89, 71, 82, 90, 94, 91, 72, 93, 98, 86, 95, 99, 92, 100, 77, 96, 78]);
% time elapsed: 94.81 s
----------
%%%mzn-stat: initTime=0.033557431
%%%mzn-stat: objective=399
%%%mzn-stat: nodes=263747
%%%mzn-stat: restarts=0
%%%mzn-stat: peakDepth=2283
%%%mzn-stat: solveTime=131.630375571
%%%mzn-stat: variables=3269
%%%mzn-stat: propagators=7712
%%%mzn-stat: failures=227891
%%%mzn-stat: propagations=149976004
%%%mzn-stat: nogoods=227891
%%%mzn-stat: numAtomicConstraintsPropagated=0
%%%mzn-stat: circuitNumber4951PropagationsThatFoundConflict=11765
%%%mzn-stat: circuitNumber4951TotalFixedEdgesAtConflict=1079266
%%%mzn-stat: circuitNumber4951NumberOfConflicts=11765
%%%mzn-stat: circuitNumber4951PropagationsThatPruned=184889
%%%mzn-stat: circuitNumber4951PropagationsTotal=435435
%%%mzn-stat: AverageConflictSize=11.893356911856984
%%%mzn-stat: NumUnitNogoodsLearned=0
%%%mzn-stat: AverageLearnedNogoodLength=79.07257855729274
%%%mzn-stat: AverageBacktrackAmount=0
%%%mzn-stat: AverageLbd=61.86254393547792
%%%mzn-stat: 2AutonomousSearchNumBackupCalled=8636
%%%mzn-stat: 2AutonomousSearchNumPredicatesRemoved=0
%%%mzn-stat: 2AutonomousSearchNumCalls=8640
%%%mzn-stat: 2AutonomousSearchNumPredicatesAdded=5981
%%%mzn-stat: 2AutonomousSearchAverageSizeOfHeap=0.7307870370370371
%%%mzn-stat: 2AutonomousSearchNumAssignedPredicatesEncountered=6314
%%%mzn-stat-end
maxleg = 399;
succ = array1d(1..100,[3, 4, 6, 5, 7, 19, 11, 2, 8, 1, 13, 14, 18, 15, 23, 21, 10, 16, 9, 27, 22, 12, 24, 28, 17, 30, 35, 31, 25, 39, 34, 26, 37, 33, 36, 40, 44, 48, 41, 43, 51, 20, 46, 55, 32, 47, 59, 29, 57, 38, 42, 54, 45, 50, 49, 53, 58, 76, 66, 61, 63, 60, 68, 69, 56, 79, 62, 80, 65, 64, 67, 75, 70, 73, 85, 77, 83, 74, 81, 88, 87, 97, 84, 89, 71, 82, 90, 94, 91, 72, 93, 52, 86, 95, 99, 98, 100, 92, 96, 78]);
% time elapsed: 146.27 s
----------
%%%mzn-stat: initTime=0.033557431
%%%mzn-stat: objective=371
%%%mzn-stat: nodes=339904
%%%mzn-stat: restarts=0
%%%mzn-stat: peakDepth=2283
%%%mzn-stat: solveTime=159.675779811
%%%mzn-stat: variables=3269
%%%mzn-stat: propagators=7712
%%%mzn-stat: failures=283205
%%%mzn-stat: propagations=183856157
%%%mzn-stat: nogoods=283205
%%%mzn-stat: numAtomicConstraintsPropagated=0
%%%mzn-stat: circuitNumber4951PropagationsThatFoundConflict=12815
%%%mzn-stat: circuitNumber4951TotalFixedEdgesAtConflict=1176104
%%%mzn-stat: circuitNumber4951NumberOfConflicts=12815
%%%mzn-stat: circuitNumber4951PropagationsThatPruned=204418
%%%mzn-stat: circuitNumber4951PropagationsTotal=529760
%%%mzn-stat: AverageConflictSize=12.260655708762204
%%%mzn-stat: NumUnitNogoodsLearned=0
%%%mzn-stat: AverageLearnedNogoodLength=76.45837467558836
%%%mzn-stat: AverageBacktrackAmount=0
%%%mzn-stat: AverageLbd=58.925908793983155
%%%mzn-stat: 2AutonomousSearchNumBackupCalled=10686
%%%mzn-stat: 2AutonomousSearchNumPredicatesRemoved=0
%%%mzn-stat: 2AutonomousSearchNumCalls=10691
%%%mzn-stat: 2AutonomousSearchNumPredicatesAdded=7765
%%%mzn-stat: 2AutonomousSearchAverageSizeOfHeap=0.7831821157983351
%%%mzn-stat: 2AutonomousSearchNumAssignedPredicatesEncountered=8373
%%%mzn-stat-end
maxleg = 371;
succ = array1d(1..100,[3, 4, 6, 5, 7, 19, 11, 2, 8, 1, 13, 14, 18, 15, 23, 21, 10, 16, 9, 27, 22, 12, 24, 28, 17, 30, 35, 31, 25, 39, 34, 26, 37, 33, 36, 40, 44, 48, 41, 43, 51, 20, 46, 55, 32, 47, 59, 29, 57, 38, 42, 54, 45, 50, 49, 53, 58, 76, 66, 62, 63, 67, 60, 69, 56, 79, 65, 61, 70, 71, 75, 80, 64, 73, 85, 77, 81, 83, 89, 68, 87, 97, 84, 91, 78, 82, 90, 72, 86, 92, 93, 98, 52, 88, 94, 99, 100, 96, 95, 74]);
% time elapsed: 174.32 s
----------
%%%mzn-stat: initTime=0.033557431
%%%mzn-stat: objective=361
%%%mzn-stat: nodes=356598
%%%mzn-stat: restarts=0
%%%mzn-stat: peakDepth=2283
%%%mzn-stat: solveTime=163.908752994
%%%mzn-stat: variables=3269
%%%mzn-stat: propagators=7712
%%%mzn-stat: failures=293071
%%%mzn-stat: propagations=189490577
%%%mzn-stat: nogoods=293071
%%%mzn-stat: numAtomicConstraintsPropagated=0
%%%mzn-stat: circuitNumber4951PropagationsThatFoundConflict=13063
%%%mzn-stat: circuitNumber4951TotalFixedEdgesAtConflict=1198615
%%%mzn-stat: circuitNumber4951NumberOfConflicts=13063
%%%mzn-stat: circuitNumber4951PropagationsThatPruned=206271
%%%mzn-stat: circuitNumber4951PropagationsTotal=544969
%%%mzn-stat: AverageConflictSize=12.571001566173384
%%%mzn-stat: NumUnitNogoodsLearned=0
%%%mzn-stat: AverageLearnedNogoodLength=76.02288182727052
%%%mzn-stat: AverageBacktrackAmount=0
%%%mzn-stat: AverageLbd=58.15758297477403
%%%mzn-stat: 2AutonomousSearchNumBackupCalled=12740
%%%mzn-stat: 2AutonomousSearchNumPredicatesRemoved=0
%%%mzn-stat: 2AutonomousSearchNumCalls=12746
%%%mzn-stat: 2AutonomousSearchNumPredicatesAdded=9582
%%%mzn-stat: 2AutonomousSearchAverageSizeOfHeap=0.8197081437313667
%%%mzn-stat: 2AutonomousSearchNumAssignedPredicatesEncountered=10448
%%%mzn-stat-end
maxleg = 361;
succ = array1d(1..100,[3, 4, 6, 5, 7, 19, 11, 2, 8, 1, 13, 14, 18, 15, 23, 21, 10, 16, 9, 35, 22, 12, 24, 28, 17, 30, 36, 31, 25, 39, 34, 26, 37, 33, 27, 40, 44, 48, 41, 43, 51, 20, 46, 55, 32, 47, 59, 29, 57, 38, 42, 54, 45, 50, 49, 53, 58, 76, 66, 62, 63, 67, 60, 69, 56, 79, 65, 61, 70, 71, 75, 80, 64, 73, 85, 77, 81, 83, 89, 68, 87, 97, 84, 91, 78, 82, 90, 72, 86, 92, 93, 98, 52, 88, 94, 99, 100, 96, 95, 74]);
% time elapsed: 178.56 s
----------
%%%mzn-stat: initTime=0.033557431
%%%mzn-stat: objective=355
%%%mzn-stat: nodes=362866
%%%mzn-stat: restarts=0
%%%mzn-stat: peakDepth=2283
%%%mzn-stat: solveTime=165.46296606
%%%mzn-stat: variables=3269
%%%mzn-stat: propagators=7712
%%%mzn-stat: failures=295888
%%%mzn-stat: propagations=191280054
%%%mzn-stat: nogoods=295888
%%%mzn-stat: numAtomicConstraintsPropagated=0
%%%mzn-stat: circuitNumber4951PropagationsThatFoundConflict=13137
%%%mzn-stat: circuitNumber4951TotalFixedEdgesAtConflict=1205155
%%%mzn-stat: circuitNumber4951NumberOfConflicts=13137
%%%mzn-stat: circuitNumber4951PropagationsThatPruned=206858
%%%mzn-stat: circuitNumber4951PropagationsTotal=550035
%%%mzn-stat: AverageConflictSize=12.712786594927811
%%%mzn-stat: NumUnitNogoodsLearned=0
%%%mzn-stat: AverageLearnedNogoodLength=76.03732493375873
%%%mzn-stat: AverageBacktrackAmount=0
%%%mzn-stat: AverageLbd=58.05822135402585
%%%mzn-stat: 2AutonomousSearchNumBackupCalled=14767
%%%mzn-stat: 2AutonomousSearchNumPredicatesRemoved=0
%%%mzn-stat: 2AutonomousSearchNumCalls=14774
%%%mzn-stat: 2AutonomousSearchNumPredicatesAdded=11338
%%%mzn-stat: 2AutonomousSearchAverageSizeOfHeap=0.8485853526465412
%%%mzn-stat: 2AutonomousSearchNumAssignedPredicatesEncountered=12537
%%%mzn-stat-end
maxleg = 355;
succ = array1d(1..100,[3, 4, 6, 5, 7, 19, 11, 2, 8, 1, 13, 14, 18, 15, 23, 21, 10, 16, 9, 35, 22, 12, 24, 28, 17, 30, 36, 31, 25, 39, 34, 26, 37, 33, 27, 43, 44, 48, 41, 46, 51, 20, 40, 55, 32, 47, 59, 29, 57, 38, 42, 54, 45, 50, 49, 53, 58, 76, 66, 62, 63, 67, 60, 69, 56, 79, 65, 61, 70, 71, 75, 80, 64, 73, 85, 77, 81, 83, 89, 68, 87, 97, 84, 91, 78, 82, 90, 72, 86, 92, 93, 98, 52, 88, 94, 99, 100, 96, 95, 74]);
% time elapsed: 180.13 s
----------
%%%mzn-stat: initTime=0.033557431
%%%mzn-stat: objective=353
%%%mzn-stat: nodes=374250
%%%mzn-stat: restarts=0
%%%mzn-stat: peakDepth=2283
%%%mzn-stat: solveTime=167.301243307
%%%mzn-stat: variables=3269
%%%mzn-stat: propagators=7712
%%%mzn-stat: failures=301324
%%%mzn-stat: propagations=194069001
%%%mzn-stat: nogoods=301324
%%%mzn-stat: numAtomicConstraintsPropagated=0
%%%mzn-stat: circuitNumber4951PropagationsThatFoundConflict=13160
%%%mzn-stat: circuitNumber4951TotalFixedEdgesAtConflict=1207206
%%%mzn-stat: circuitNumber4951NumberOfConflicts=13160
%%%mzn-stat: circuitNumber4951PropagationsThatPruned=207759
%%%mzn-stat: circuitNumber4951PropagationsTotal=558222
%%%mzn-stat: AverageConflictSize=12.992526317186815
%%%mzn-stat: NumUnitNogoodsLearned=0
%%%mzn-stat: AverageLearnedNogoodLength=75.83812772961994
%%%mzn-stat: AverageBacktrackAmount=0
%%%mzn-stat: AverageLbd=57.55305916554938
%%%mzn-stat: 2AutonomousSearchNumBackupCalled=16809
%%%mzn-stat: 2AutonomousSearchNumPredicatesRemoved=0
%%%mzn-stat: 2AutonomousSearchNumCalls=16817
%%%mzn-stat: 2AutonomousSearchNumPredicatesAdded=13163
%%%mzn-stat: 2AutonomousSearchAverageSizeOfHeap=0.8772670511981923
%%%mzn-stat: 2AutonomousSearchNumAssignedPredicatesEncountered=14753
%%%mzn-stat-end
maxleg = 353;
succ = array1d(1..100,[3, 4, 6, 5, 7, 19, 11, 2, 8, 1, 13, 14, 18, 15, 23, 21, 10, 16, 9, 35, 22, 12, 24, 28, 17, 30, 36, 31, 25, 39, 34, 26, 37, 33, 27, 43, 44, 48, 41, 46, 51, 20, 40, 55, 32, 47, 73, 29, 57, 38, 42, 54, 45, 50, 49, 53, 58, 76, 66, 62, 63, 67, 60, 69, 56, 79, 65, 61, 70, 71, 75, 80, 64, 82, 85, 59, 52, 97, 81, 68, 87, 83, 84, 89, 78, 77, 90, 72, 91, 92, 93, 98, 86, 88, 94, 99, 100, 96, 95, 74]);
% time elapsed: 181.97 s
----------
%%%mzn-stat: initTime=0.033557431
%%%mzn-stat: objective=343
%%%mzn-stat: nodes=376374
%%%mzn-stat: restarts=0
%%%mzn-stat: peakDepth=2283
%%%mzn-stat: solveTime=167.307225078
%%%mzn-stat: variables=3269
%%%mzn-stat: propagators=7712
%%%mzn-stat: failures=301325
%%%mzn-stat: propagations=194083942
%%%mzn-stat: nogoods=301325
%%%mzn-stat: numAtomicConstraintsPropagated=0
%%%mzn-stat: circuitNumber4951PropagationsThatFoundConflict=13161
%%%mzn-stat: circuitNumber4951TotalFixedEdgesAtConflict=1207287
%%%mzn-stat: circuitNumber4951NumberOfConflicts=13161
%%%mzn-stat: circuitNumber4951PropagationsThatPruned=207761
%%%mzn-stat: circuitNumber4951PropagationsTotal=558316
%%%mzn-stat: AverageConflictSize=12.992489836555215
%%%mzn-stat: NumUnitNogoodsLearned=0
%%%mzn-stat: AverageLearnedNogoodLength=75.8378926408363
%%%mzn-stat: AverageBacktrackAmount=0
%%%mzn-stat: AverageLbd=57.55287812162947
%%%mzn-stat: 2AutonomousSearchNumBackupCalled=18840
%%%mzn-stat: 2AutonomousSearchNumPredicatesRemoved=0
%%%mzn-stat: 2AutonomousSearchNumCalls=18849
%%%mzn-stat: 2AutonomousSearchNumPredicatesAdded=13205
%%%mzn-stat: 2AutonomousSearchAverageSizeOfHeap=0.9002599607406229
%%%mzn-stat: 2AutonomousSearchNumAssignedPredicatesEncountered=16969
%%%mzn-stat-end
maxleg = 343;
succ = array1d(1..100,[3, 4, 10, 5, 7, 19, 11, 2, 8, 17, 13, 14, 18, 15, 23, 21, 25, 16, 9, 35, 22, 12, 24, 28, 29, 30, 6, 31, 37, 39, 34, 26, 38, 33, 27, 20, 44, 48, 41, 43, 51, 32, 36, 40, 42, 47, 73, 49, 55, 54, 53, 57, 56, 52, 58, 65, 1, 76, 46, 50, 63, 60, 68, 45, 67, 59, 62, 80, 64, 69, 70, 75, 74, 78, 85, 66, 79, 97, 81, 72, 87, 83, 84, 89, 71, 77, 90, 94, 91, 92, 93, 98, 86, 95, 99, 88, 100, 96, 61, 82]);
% time elapsed: 181.98 s
----------
%%%mzn-stat: initTime=0.033557431
%%%mzn-stat: objective=341
%%%mzn-stat: nodes=399760
%%%mzn-stat: restarts=0
%%%mzn-stat: peakDepth=2283
%%%mzn-stat: solveTime=173.457508024
%%%mzn-stat: variables=3269
%%%mzn-stat: propagators=7712
%%%mzn-stat: failures=317913
%%%mzn-stat: propagations=201045123
%%%mzn-stat: nogoods=317913
%%%mzn-stat: numAtomicConstraintsPropagated=0
%%%mzn-stat: circuitNumber4951PropagationsThatFoundConflict=13226
%%%mzn-stat: circuitNumber4951TotalFixedEdgesAtConflict=1213206
%%%mzn-stat: circuitNumber4951NumberOfConflicts=13226
%%%mzn-stat: circuitNumber4951PropagationsThatPruned=209046
%%%mzn-stat: circuitNumber4951PropagationsTotal=575946
%%%mzn-stat: AverageConflictSize=13.634233265075665
%%%mzn-stat: NumUnitNogoodsLearned=0
%%%mzn-stat: AverageLearnedNogoodLength=75.20451507173347
%%%mzn-stat: AverageBacktrackAmount=0
%%%mzn-stat: AverageLbd=56.299607125219794
%%%mzn-stat: 2AutonomousSearchNumBackupCalled=20845
%%%mzn-stat: 2AutonomousSearchNumPredicatesRemoved=0
%%%mzn-stat: 2AutonomousSearchNumCalls=20855
%%%mzn-stat: 2AutonomousSearchNumPredicatesAdded=14712
%%%mzn-stat: 2AutonomousSearchAverageSizeOfHeap=0.9225605370414769
%%%mzn-stat: 2AutonomousSearchNumAssignedPredicatesEncountered=19240
%%%mzn-stat-end
maxleg = 341;
succ = array1d(1..100,[3, 4, 10, 5, 7, 19, 11, 2, 8, 17, 13, 14, 18, 15, 23, 21, 25, 16, 9, 35, 22, 12, 24, 28, 29, 30, 6, 31, 48, 39, 34, 26, 37, 33, 27, 20, 44, 50, 41, 43, 51, 32, 36, 46, 42, 47, 73, 38, 1, 54, 53, 55, 56, 52, 57, 65, 58, 76, 40, 62, 63, 67, 60, 45, 69, 49, 70, 61, 71, 64, 75, 80, 74, 97, 85, 59, 79, 83, 81, 68, 87, 86, 84, 66, 78, 89, 90, 72, 91, 92, 93, 98, 77, 88, 94, 99, 100, 96, 95, 82]);
% time elapsed: 188.14 s
----------
%%%mzn-stat: initTime=0.033557431
%%%mzn-stat: objective=340
%%%mzn-stat: nodes=412879
%%%mzn-stat: restarts=0
%%%mzn-stat: peakDepth=2283
%%%mzn-stat: solveTime=176.109533412
%%%mzn-stat: variables=3269
%%%mzn-stat: propagators=7712
%%%mzn-stat: failures=326139
%%%mzn-stat: propagations=204894077
%%%mzn-stat: nogoods=326139
%%%mzn-stat: numAtomicConstraintsPropagated=0
%%%mzn-stat: circuitNumber4951PropagationsThatFoundConflict=13288
%%%mzn-stat: circuitNumber4951TotalFixedEdgesAtConflict=1218848
%%%mzn-stat: circuitNumber4951NumberOfConflicts=13288
%%%mzn-stat: circuitNumber4951PropagationsThatPruned=211027
%%%mzn-stat: circuitNumber4951PropagationsTotal=586422
%%%mzn-stat: AverageConflictSize=13.749711012789026
%%%mzn-stat: NumUnitNogoodsLearned=0
%%%mzn-stat: AverageLearnedNogoodLength=74.56331809443213
%%%mzn-stat: AverageBacktrackAmount=0
%%%mzn-stat: AverageLbd=55.515632904988365
%%%mzn-stat: 2AutonomousSearchNumBackupCalled=22788
%%%mzn-stat: 2AutonomousSearchNumPredicatesRemoved=0
%%%mzn-stat: 2AutonomousSearchNumCalls=22799
%%%mzn-stat: 2AutonomousSearchNumPredicatesAdded=16406
%%%mzn-stat: 2AutonomousSearchAverageSizeOfHeap=0.9444712487389798
%%%mzn-stat: 2AutonomousSearchNumAssignedPredicatesEncountered=21533
%%%mzn-stat-end
maxleg = 340;
succ = array1d(1..100,[3, 4, 10, 8, 7, 19, 11, 9, 24, 17, 13, 14, 18, 15, 23, 21, 25, 16, 2, 5, 22, 12, 28, 31, 29, 30, 6, 33, 48, 39, 34, 26, 37, 38, 20, 27, 44, 50, 41, 35, 51, 32, 36, 43, 42, 40, 46, 49, 55, 54, 53, 57, 56, 52, 58, 65, 1, 76, 66, 62, 63, 67, 60, 45, 69, 79, 70, 61, 71, 64, 75, 80, 47, 73, 85, 59, 81, 82, 89, 68, 87, 97, 77, 83, 78, 93, 90, 72, 86, 92, 84, 98, 91, 88, 94, 99, 100, 96, 95, 74]);
% time elapsed: 190.80 s
----------
%%%mzn-stat: initTime=0.033557431
%%%mzn-stat: objective=339
%%%mzn-stat: nodes=416578
%%%mzn-stat: restarts=0
%%%mzn-stat: peakDepth=2283
%%%mzn-stat: solveTime=176.3726492
%%%mzn-stat: variables=3269
%%%mzn-stat: propagators=7712
%%%mzn-stat: failures=326932
%%%mzn-stat: propagations=205309764
%%%mzn-stat: nogoods=326932
%%%mzn-stat: numAtomicConstraintsPropagated=0
%%%mzn-stat: circuitNumber4951PropagationsThatFoundConflict=13463
%%%mzn-stat: circuitNumber4951TotalFixedEdgesAtConflict=1234778
%%%mzn-stat: circuitNumber4951NumberOfConflicts=13463
%%%mzn-stat: circuitNumber4951PropagationsThatPruned=211211
%%%mzn-stat: circuitNumber4951PropagationsTotal=588150
%%%mzn-stat: AverageConflictSize=13.779397550560972
%%%mzn-stat: NumUnitNogoodsLearned=0
%%%mzn-stat: AverageLearnedNogoodLength=74.47894363353848
%%%mzn-stat: AverageBacktrackAmount=0
%%%mzn-stat: AverageLbd=55.44388435515642
%%%mzn-stat: 2AutonomousSearchNumBackupCalled=24813
%%%mzn-stat: 2AutonomousSearchNumPredicatesRemoved=0
%%%mzn-stat: 2AutonomousSearchNumCalls=24825
%%%mzn-stat: 2AutonomousSearchNumPredicatesAdded=17808
%%%mzn-stat: 2AutonomousSearchAverageSizeOfHeap=0.960281973816717
%%%mzn-stat: 2AutonomousSearchNumAssignedPredicatesEncountered=23839
%%%mzn-stat-end
maxleg = 339;
succ = array1d(1..100,[3, 4, 10, 8, 7, 19, 11, 9, 24, 17, 13, 14, 18, 15, 23, 26, 25, 16, 2, 5, 22, 12, 28, 21, 29, 30, 6, 31, 48, 39, 34, 42, 37, 33, 20, 27, 44, 50, 41, 35, 51, 45, 36, 40, 53, 43, 46, 38, 1, 54, 32, 55, 56, 52, 57, 65, 58, 76, 66, 62, 63, 67, 60, 69, 71, 49, 70, 61, 75, 64, 85, 80, 47, 73, 72, 77, 81, 83, 89, 88, 68, 97, 59, 91, 78, 82, 79, 94, 84, 87, 93, 90, 86, 95, 99, 98, 100, 92, 96, 74]);
% time elapsed: 191.07 s
----------
%%%mzn-stat: initTime=0.033557431
%%%mzn-stat: objective=335
%%%mzn-stat: nodes=421484
%%%mzn-stat: restarts=0
%%%mzn-stat: peakDepth=2283
%%%mzn-stat: solveTime=177.16008051
%%%mzn-stat: variables=3269
%%%mzn-stat: propagators=7712
%%%mzn-stat: failures=328754
%%%mzn-stat: propagations=206205066
%%%mzn-stat: nogoods=328754
%%%mzn-stat: numAtomicConstraintsPropagated=0
%%%mzn-stat: circuitNumber4951PropagationsThatFoundConflict=14148
%%%mzn-stat: circuitNumber4951TotalFixedEdgesAtConflict=1297497
%%%mzn-stat: circuitNumber4951NumberOfConflicts=14148
%%%mzn-stat: circuitNumber4951PropagationsThatPruned=211408
%%%mzn-stat: circuitNumber4951PropagationsTotal=591404
%%%mzn-stat: AverageConflictSize=13.931325550411554
%%%mzn-stat: NumUnitNogoodsLearned=0
%%%mzn-stat: AverageLearnedNogoodLength=74.422184977217
%%%mzn-stat: AverageBacktrackAmount=0
%%%mzn-stat: AverageLbd=55.38626754351278
%%%mzn-stat: 2AutonomousSearchNumBackupCalled=26763
%%%mzn-stat: 2AutonomousSearchNumPredicatesRemoved=0
%%%mzn-stat: 2AutonomousSearchNumCalls=26776
%%%mzn-stat: 2AutonomousSearchNumPredicatesAdded=19020
%%%mzn-stat: 2AutonomousSearchAverageSizeOfHeap=0.9768449357633702
%%%mzn-stat: 2AutonomousSearchNumAssignedPredicatesEncountered=26156
%%%mzn-stat-end
maxleg = 335;
succ = array1d(1..100,[3, 4, 10, 8, 7, 19, 11, 9, 24, 17, 13, 14, 18, 15, 23, 26, 25, 16, 2, 5, 22, 12, 28, 21, 29, 30, 6, 31, 48, 39, 34, 42, 37, 33, 20, 27, 44, 50, 41, 35, 51, 45, 40, 43, 53, 47, 36, 38, 1, 54, 32, 55, 56, 52, 57, 65, 58, 76, 46, 62, 63, 67, 60, 69, 71, 49, 70, 61, 75, 64, 85, 80, 74, 82, 72, 59, 81, 97, 66, 88, 68, 83, 84, 89, 78, 77, 79, 94, 91, 87, 93, 90, 86, 95, 99, 98, 100, 92, 96, 73]);
% time elapsed: 191.86 s
----------
%%%mzn-stat: initTime=0.033557431
%%%mzn-stat: objective=334
%%%mzn-stat: nodes=424931
%%%mzn-stat: restarts=0
%%%mzn-stat: peakDepth=2283
%%%mzn-stat: solveTime=177.679268222
%%%mzn-stat: variables=3269
%%%mzn-stat: propagators=7712
%%%mzn-stat: failures=329593
%%%mzn-stat: propagations=206676616
%%%mzn-stat: nogoods=329593
%%%mzn-stat: numAtomicConstraintsPropagated=0
%%%mzn-stat: circuitNumber4951PropagationsThatFoundConflict=14838
%%%mzn-stat: circuitNumber4951TotalFixedEdgesAtConflict=1360686
%%%mzn-stat: circuitNumber4951NumberOfConflicts=14838
%%%mzn-stat: circuitNumber4951PropagationsThatPruned=211582
%%%mzn-stat: circuitNumber4951PropagationsTotal=593586
%%%mzn-stat: AverageConflictSize=14.067668306062325
%%%mzn-stat: NumUnitNogoodsLearned=0
%%%mzn-stat: AverageLearnedNogoodLength=74.44284617695158
%%%mzn-stat: AverageBacktrackAmount=0
%%%mzn-stat: AverageLbd=55.42304296511151
%%%mzn-stat: 2AutonomousSearchNumBackupCalled=28722
%%%mzn-stat: 2AutonomousSearchNumPredicatesRemoved=0
%%%mzn-stat: 2AutonomousSearchNumCalls=28736
%%%mzn-stat: 2AutonomousSearchNumPredicatesAdded=19992
%%%mzn-stat: 2AutonomousSearchAverageSizeOfHeap=0.9911261135857461
%%%mzn-stat: 2AutonomousSearchNumAssignedPredicatesEncountered=28481
%%%mzn-stat-end
maxleg = 334;
succ = array1d(1..100,[3, 4, 10, 8, 11, 19, 16, 9, 24, 17, 7, 14, 5, 15, 23, 18, 25, 26, 2, 13, 22, 12, 28, 21, 29, 30, 6, 31, 48, 39, 34, 42, 37, 33, 20, 27, 44, 50, 41, 35, 51, 45, 40, 43, 53, 47, 36, 38, 1, 54, 32, 55, 56, 52, 57, 65, 58, 76, 46, 62, 63, 67, 60, 69, 71, 49, 70, 61, 75, 64, 85, 80, 74, 82, 72, 59, 81, 97, 66, 88, 68, 83, 84, 89, 78, 77, 79, 94, 91, 87, 93, 90, 86, 95, 99, 98, 100, 92, 96, 73]);
% time elapsed: 192.38 s
----------
%%%mzn-stat: initTime=0.033557431
%%%mzn-stat: objective=332
%%%mzn-stat: nodes=449108
%%%mzn-stat: restarts=1
%%%mzn-stat: peakDepth=2283
%%%mzn-stat: solveTime=181.708595605
%%%mzn-stat: variables=3269
%%%mzn-stat: propagators=7712
%%%mzn-stat: failures=343708
%%%mzn-stat: propagations=214256874
%%%mzn-stat: nogoods=343708
%%%mzn-stat: numAtomicConstraintsPropagated=0
%%%mzn-stat: circuitNumber4951PropagationsThatFoundConflict=15654
%%%mzn-stat: circuitNumber4951TotalFixedEdgesAtConflict=1435285
%%%mzn-stat: circuitNumber4951NumberOfConflicts=15654
%%%mzn-stat: circuitNumber4951PropagationsThatPruned=213452
%%%mzn-stat: circuitNumber4951PropagationsTotal=613987
%%%mzn-stat: AverageConflictSize=14.26624634864478
%%%mzn-stat: NumUnitNogoodsLearned=0
%%%mzn-stat: AverageLearnedNogoodLength=73.16198051834697
%%%mzn-stat: AverageBacktrackAmount=0
%%%mzn-stat: AverageLbd=54.013357268378975
%%%mzn-stat: 2AutonomousSearchNumBackupCalled=30702
%%%mzn-stat: 2AutonomousSearchNumPredicatesRemoved=0
%%%mzn-stat: 2AutonomousSearchNumCalls=30935
%%%mzn-stat: 2AutonomousSearchNumPredicatesAdded=21789
%%%mzn-stat: 2AutonomousSearchAverageSizeOfHeap=13.286051398092775
%%%mzn-stat: 2AutonomousSearchNumAssignedPredicatesEncountered=35672
%%%mzn-stat-end
maxleg = 332;
succ = array1d(1..100,[3, 4, 10, 8, 11, 19, 26, 9, 24, 17, 7, 14, 5, 15, 23, 18, 25, 51, 2, 13, 22, 12, 30, 21, 29, 16, 6, 31, 48, 39, 34, 42, 37, 33, 20, 27, 44, 50, 41, 35, 28, 45, 40, 43, 53, 47, 36, 38, 1, 54, 32, 55, 56, 52, 57, 65, 58, 76, 46, 62, 63, 67, 60, 69, 71, 49, 70, 61, 75, 64, 85, 80, 74, 82, 72, 59, 81, 97, 66, 88, 68, 83, 84, 89, 78, 77, 79, 94, 91, 87, 93, 90, 86, 95, 99, 98, 100, 92, 96, 73]);
% time elapsed: 196.42 s
----------
%%%mzn-stat: initTime=0.033557431
%%%mzn-stat: objective=331
%%%mzn-stat: nodes=645965
%%%mzn-stat: restarts=2
%%%mzn-stat: peakDepth=2283
%%%mzn-stat: solveTime=220.514397503
%%%mzn-stat: variables=3269
%%%mzn-stat: propagators=7712
%%%mzn-stat: failures=474520
%%%mzn-stat: propagations=277722617
%%%mzn-stat: nogoods=474520
%%%mzn-stat: numAtomicConstraintsPropagated=0
%%%mzn-stat: circuitNumber4951PropagationsThatFoundConflict=18015
%%%mzn-stat: circuitNumber4951TotalFixedEdgesAtConflict=1649840
%%%mzn-stat: circuitNumber4951NumberOfConflicts=18015
%%%mzn-stat: circuitNumber4951PropagationsThatPruned=230903
%%%mzn-stat: circuitNumber4951PropagationsTotal=787943
%%%mzn-stat: AverageConflictSize=16.068340638961477
%%%mzn-stat: NumUnitNogoodsLearned=0
%%%mzn-stat: AverageLearnedNogoodLength=66.35686799291916
%%%mzn-stat: AverageBacktrackAmount=0
%%%mzn-stat: AverageLbd=44.85422110764562
%%%mzn-stat: 2AutonomousSearchNumBackupCalled=32645
%%%mzn-stat: 2AutonomousSearchNumPredicatesRemoved=0
%%%mzn-stat: 2AutonomousSearchNumCalls=33090
%%%mzn-stat: 2AutonomousSearchNumPredicatesAdded=23829
%%%mzn-stat: 2AutonomousSearchAverageSizeOfHeap=26.230462375339982
%%%mzn-stat: 2AutonomousSearchNumAssignedPredicatesEncountered=41052
%%%mzn-stat-end
maxleg = 331;
succ = array1d(1..100,[3, 4, 10, 8, 70, 19, 26, 9, 24, 17, 7, 28, 11, 63, 23, 18, 25, 51, 2, 13, 5, 12, 30, 21, 29, 16, 6, 31, 48, 39, 34, 42, 37, 33, 20, 27, 44, 50, 41, 35, 22, 45, 40, 43, 53, 47, 36, 38, 1, 54, 32, 55, 56, 52, 57, 65, 58, 14, 46, 62, 15, 67, 60, 69, 71, 49, 86, 61, 75, 64, 85, 80, 74, 82, 72, 59, 81, 97, 66, 88, 68, 83, 84, 91, 78, 77, 79, 94, 76, 87, 93, 90, 89, 95, 99, 98, 100, 92, 96, 73]);
% time elapsed: 235.23 s
----------
%%%mzn-stat: initTime=0.033557431
%%%mzn-stat: objective=329
%%%mzn-stat: nodes=647988
%%%mzn-stat: restarts=2
%%%mzn-stat: peakDepth=2283
%%%mzn-stat: solveTime=220.519493094
%%%mzn-stat: variables=3269
%%%mzn-stat: propagators=7712
%%%mzn-stat: failures=474520
%%%mzn-stat: propagations=277737030
%%%mzn-stat: nogoods=474520
%%%mzn-stat: numAtomicConstraintsPropagated=0
%%%mzn-stat: circuitNumber4951PropagationsThatFoundConflict=18015
%%%mzn-stat: circuitNumber4951TotalFixedEdgesAtConflict=1649840
%%%mzn-stat: circuitNumber4951NumberOfConflicts=18015
%%%mzn-stat: circuitNumber4951PropagationsThatPruned=230905
%%%mzn-stat: circuitNumber4951PropagationsTotal=788033
%%%mzn-stat: AverageConflictSize=16.068340638961477
%%%mzn-stat: NumUnitNogoodsLearned=0
%%%mzn-stat: AverageLearnedNogoodLength=66.35686799291916
%%%mzn-stat: AverageBacktrackAmount=0
%%%mzn-stat: AverageLbd=44.85422110764562
%%%mzn-stat: 2AutonomousSearchNumBackupCalled=34579
%%%mzn-stat: 2AutonomousSearchNumPredicatesRemoved=0
%%%mzn-stat: 2AutonomousSearchNumCalls=35025
%%%mzn-stat: 2AutonomousSearchNumPredicatesAdded=23829
%%%mzn-stat: 2AutonomousSearchAverageSizeOfHeap=24.858129907209136
%%%mzn-stat: 2AutonomousSearchNumAssignedPredicatesEncountered=43742
%%%mzn-stat-end
maxleg = 329;
succ = array1d(1..100,[3, 4, 10, 8, 11, 19, 16, 9, 24, 17, 7, 14, 5, 15, 23, 18, 25, 26, 2, 13, 22, 12, 28, 21, 29, 32, 6, 30, 48, 31, 34, 42, 37, 33, 20, 27, 44, 50, 41, 35, 51, 45, 40, 43, 53, 47, 36, 38, 1, 54, 56, 55, 64, 52, 57, 65, 58, 76, 46, 39, 63, 60, 68, 69, 71, 49, 62, 80, 70, 78, 85, 67, 74, 82, 88, 59, 81, 97, 66, 72, 87, 83, 84, 89, 75, 77, 90, 94, 91, 61, 93, 98, 86, 95, 99, 92, 100, 79, 96, 73]);
% time elapsed: 235.24 s
----------
%%%mzn-stat: initTime=0.033557431
%%%mzn-stat: objective=328
%%%mzn-stat: nodes=915549
%%%mzn-stat: restarts=4
%%%mzn-stat: peakDepth=2283
%%%mzn-stat: solveTime=332.333077513
%%%mzn-stat: variables=3269
%%%mzn-stat: propagators=7712
%%%mzn-stat: failures=680810
%%%mzn-stat: propagations=390433373
%%%mzn-stat: nogoods=680810
%%%mzn-stat: numAtomicConstraintsPropagated=0
%%%mzn-stat: circuitNumber4951PropagationsThatFoundConflict=47705
%%%mzn-stat: circuitNumber4951TotalFixedEdgesAtConflict=4439952
%%%mzn-stat: circuitNumber4951NumberOfConflicts=47705
%%%mzn-stat: circuitNumber4951PropagationsThatPruned=310065
%%%mzn-stat: circuitNumber4951PropagationsTotal=1118692
%%%mzn-stat: AverageConflictSize=19.287118285571598
%%%mzn-stat: NumUnitNogoodsLearned=0
%%%mzn-stat: AverageLearnedNogoodLength=68.05494631394956
%%%mzn-stat: AverageBacktrackAmount=0
%%%mzn-stat: AverageLbd=46.23261115436025
%%%mzn-stat: 2AutonomousSearchNumBackupCalled=36537
%%%mzn-stat: 2AutonomousSearchNumPredicatesRemoved=0
%%%mzn-stat: 2AutonomousSearchNumCalls=37482
%%%mzn-stat: 2AutonomousSearchNumPredicatesAdded=26858
%%%mzn-stat: 2AutonomousSearchAverageSizeOfHeap=54.623019049143586
%%%mzn-stat: 2AutonomousSearchNumAssignedPredicatesEncountered=56443
%%%mzn-stat-end
maxleg = 328;
succ = array1d(1..100,[3, 4, 10, 8, 11, 35, 16, 9, 24, 17, 7, 39, 5, 15, 23, 18, 25, 26, 2, 13, 22, 12, 28, 21, 29, 32, 6, 30, 48, 31, 34, 42, 37, 33, 20, 27, 44, 50, 41, 19, 51, 45, 40, 43, 53, 47, 36, 38, 1, 54, 56, 55, 64, 52, 57, 65, 58, 76, 46, 14, 63, 60, 68, 69, 71, 49, 62, 80, 70, 78, 85, 67, 74, 82, 88, 59, 81, 97, 66, 72, 87, 83, 84, 89, 75, 77, 90, 94, 91, 61, 93, 98, 86, 95, 99, 92, 100, 79, 96, 73]);
% time elapsed: 347.06 s
----------
%%%mzn-stat: initTime=0.033557431
%%%mzn-stat: objective=321
%%%mzn-stat: nodes=1066850
%%%mzn-stat: restarts=4
%%%mzn-stat: peakDepth=2283
%%%mzn-stat: solveTime=366.098533935
%%%mzn-stat: variables=3269
%%%mzn-stat: propagators=7712
%%%mzn-stat: failures=767729
%%%mzn-stat: propagations=435618519
%%%mzn-stat: nogoods=767729
%%%mzn-stat: numAtomicConstraintsPropagated=0
%%%mzn-stat: circuitNumber4951PropagationsThatFoundConflict=49211
%%%mzn-stat: circuitNumber4951TotalFixedEdgesAtConflict=4577585
%%%mzn-stat: circuitNumber4951NumberOfConflicts=49211
%%%mzn-stat: circuitNumber4951PropagationsThatPruned=324668
%%%mzn-stat: circuitNumber4951PropagationsTotal=1256859
%%%mzn-stat: AverageConflictSize=19.88169914123343
%%%mzn-stat: NumUnitNogoodsLearned=0
%%%mzn-stat: AverageLearnedNogoodLength=66.96087030710055
%%%mzn-stat: AverageBacktrackAmount=0
%%%mzn-stat: AverageLbd=44.732944828188074
%%%mzn-stat: 2AutonomousSearchNumBackupCalled=38457
%%%mzn-stat: 2AutonomousSearchNumPredicatesRemoved=0
%%%mzn-stat: 2AutonomousSearchNumCalls=39403
%%%mzn-stat: 2AutonomousSearchNumPredicatesAdded=28799
%%%mzn-stat: 2AutonomousSearchAverageSizeOfHeap=52.05644240286273
%%%mzn-stat: 2AutonomousSearchNumAssignedPredicatesEncountered=60243
%%%mzn-stat-end
maxleg = 321;
succ = array1d(1..100,[3, 4, 10, 8, 11, 27, 16, 9, 19, 17, 7, 14, 5, 15, 23, 18, 25, 26, 33, 13, 22, 12, 24, 2, 29, 21, 35, 30, 48, 31, 34, 42, 28, 38, 20, 6, 44, 50, 41, 43, 51, 45, 46, 40, 53, 47, 36, 37, 1, 54, 32, 55, 56, 52, 57, 65, 58, 76, 66, 39, 63, 60, 68, 69, 71, 49, 62, 80, 70, 78, 75, 88, 64, 73, 72, 77, 83, 85, 89, 95, 79, 97, 82, 59, 67, 93, 81, 94, 86, 61, 84, 87, 91, 90, 99, 98, 100, 92, 96, 74]);
% time elapsed: 380.85 s
----------
%%%mzn-stat: initTime=0.033557431
%%%mzn-stat: objective=320
%%%mzn-stat: nodes=1175512
%%%mzn-stat: restarts=4
%%%mzn-stat: peakDepth=2283
%%%mzn-stat: solveTime=388.379954393
%%%mzn-stat: variables=3269
%%%mzn-stat: propagators=7712
%%%mzn-stat: failures=822429
%%%mzn-stat: propagations=476932250
%%%mzn-stat: nogoods=822429
%%%mzn-stat: numAtomicConstraintsPropagated=0
%%%mzn-stat: circuitNumber4951PropagationsThatFoundConflict=50440
%%%mzn-stat: circuitNumber4951TotalFixedEdgesAtConflict=4690958
%%%mzn-stat: circuitNumber4951NumberOfConflicts=50440
%%%mzn-stat: circuitNumber4951PropagationsThatPruned=354966
%%%mzn-stat: circuitNumber4951PropagationsTotal=1384156
%%%mzn-stat: AverageConflictSize=19.1427819301119
%%%mzn-stat: NumUnitNogoodsLearned=0
%%%mzn-stat: AverageLearnedNogoodLength=65.3260889389844
%%%mzn-stat: AverageBacktrackAmount=0
%%%mzn-stat: AverageLbd=43.49005081289692
%%%mzn-stat: 2AutonomousSearchNumBackupCalled=40394
%%%mzn-stat: 2AutonomousSearchNumPredicatesRemoved=0
%%%mzn-stat: 2AutonomousSearchNumCalls=41341
%%%mzn-stat: 2AutonomousSearchNumPredicatesAdded=30999
%%%mzn-stat: 2AutonomousSearchAverageSizeOfHeap=49.7153189327786
%%%mzn-stat: 2AutonomousSearchNumAssignedPredicatesEncountered=64344
%%%mzn-stat-end
maxleg = 320;
succ = array1d(1..100,[3, 4, 10, 8, 11, 27, 16, 9, 19, 17, 7, 14, 5, 15, 23, 18, 25, 26, 33, 13, 22, 28, 24, 2, 29, 21, 35, 12, 48, 31, 34, 42, 37, 38, 20, 6, 44, 50, 30, 43, 39, 45, 46, 40, 51, 47, 73, 49, 55, 54, 41, 57, 32, 52, 58, 53, 1, 76, 66, 62, 63, 67, 60, 69, 56, 79, 71, 61, 65, 64, 75, 80, 74, 78, 72, 59, 83, 85, 81, 88, 68, 97, 84, 89, 70, 82, 77, 94, 91, 87, 93, 90, 86, 95, 99, 98, 100, 92, 96, 36]);
% time elapsed: 403.12 s
----------
%%%mzn-stat: initTime=0.033557431
%%%mzn-stat: objective=316
%%%mzn-stat: nodes=1632018
%%%mzn-stat: restarts=4
%%%mzn-stat: peakDepth=2283
%%%mzn-stat: solveTime=547.261280685
%%%mzn-stat: variables=3269
%%%mzn-stat: propagators=7712
%%%mzn-stat: failures=1182965
%%%mzn-stat: propagations=692138513
%%%mzn-stat: nogoods=1182965
%%%mzn-stat: numAtomicConstraintsPropagated=0
%%%mzn-stat: circuitNumber4951PropagationsThatFoundConflict=63972
%%%mzn-stat: circuitNumber4951TotalFixedEdgesAtConflict=5851535
%%%mzn-stat: circuitNumber4951NumberOfConflicts=63972
%%%mzn-stat: circuitNumber4951PropagationsThatPruned=506343
%%%mzn-stat: circuitNumber4951PropagationsTotal=2021585
%%%mzn-stat: AverageConflictSize=18.58500885486891
%%%mzn-stat: NumUnitNogoodsLearned=0
%%%mzn-stat: AverageLearnedNogoodLength=65.47744945962053
%%%mzn-stat: AverageBacktrackAmount=0
%%%mzn-stat: AverageLbd=42.79718419395333
%%%mzn-stat: 2AutonomousSearchNumBackupCalled=42264
%%%mzn-stat: 2AutonomousSearchNumPredicatesRemoved=0
%%%mzn-stat: 2AutonomousSearchNumCalls=43212
%%%mzn-stat: 2AutonomousSearchNumPredicatesAdded=33300
%%%mzn-stat: 2AutonomousSearchAverageSizeOfHeap=47.6590298991021
%%%mzn-stat: 2AutonomousSearchNumAssignedPredicatesEncountered=68505
%%%mzn-stat-end
maxleg = 316;
succ = array1d(1..100,[3, 4, 10, 8, 11, 27, 16, 9, 19, 17, 7, 14, 5, 15, 23, 18, 25, 26, 33, 13, 22, 28, 24, 2, 29, 21, 35, 12, 48, 31, 34, 42, 37, 38, 20, 6, 44, 50, 30, 43, 39, 45, 46, 40, 51, 47, 73, 49, 55, 54, 41, 57, 32, 52, 58, 53, 1, 76, 66, 62, 63, 67, 60, 69, 56, 79, 71, 61, 65, 64, 85, 75, 74, 78, 88, 59, 81, 83, 89, 68, 87, 97, 77, 91, 70, 82, 90, 80, 84, 92, 93, 98, 86, 72, 94, 99, 100, 96, 95, 36]);
% time elapsed: 562.01 s
----------
%%%mzn-stat: initTime=0.033557431
%%%mzn-stat: objective=311
%%%mzn-stat: nodes=1633975
%%%mzn-stat: restarts=4
%%%mzn-stat: peakDepth=2283
%%%mzn-stat: solveTime=547.274227869
%%%mzn-stat: variables=3269
%%%mzn-stat: propagators=7712
%%%mzn-stat: failures=1182976
%%%mzn-stat: propagations=692159507
%%%mzn-stat: nogoods=1182976
%%%mzn-stat: numAtomicConstraintsPropagated=0
%%%mzn-stat: circuitNumber4951PropagationsThatFoundConflict=63983
%%%mzn-stat: circuitNumber4951TotalFixedEdgesAtConflict=5852534
%%%mzn-stat: circuitNumber4951NumberOfConflicts=63983
%%%mzn-stat: circuitNumber4951PropagationsThatPruned=506346
%%%mzn-stat: circuitNumber4951PropagationsTotal=2021699
%%%mzn-stat: AverageConflictSize=18.58557570060593
%%%mzn-stat: NumUnitNogoodsLearned=0
%%%mzn-stat: AverageLearnedNogoodLength=65.47765888741614
%%%mzn-stat: AverageBacktrackAmount=0
%%%mzn-stat: AverageLbd=42.79745658407271
%%%mzn-stat: 2AutonomousSearchNumBackupCalled=44120
%%%mzn-stat: 2AutonomousSearchNumPredicatesRemoved=0
%%%mzn-stat: 2AutonomousSearchNumCalls=45069
%%%mzn-stat: 2AutonomousSearchNumPredicatesAdded=33828
%%%mzn-stat: 2AutonomousSearchAverageSizeOfHeap=45.78763673478444
%%%mzn-stat: 2AutonomousSearchNumAssignedPredicatesEncountered=72666
%%%mzn-stat-end
maxleg = 311;
succ = array1d(1..100,[3, 4, 10, 8, 11, 27, 16, 9, 19, 17, 7, 14, 5, 15, 23, 18, 25, 26, 33, 13, 22, 28, 24, 2, 29, 21, 35, 12, 48, 31, 34, 42, 37, 38, 20, 6, 44, 50, 30, 43, 39, 45, 46, 40, 51, 47, 73, 49, 55, 54, 41, 57, 32, 52, 58, 53, 1, 76, 66, 62, 63, 67, 60, 69, 56, 79, 71, 61, 65, 64, 85, 75, 74, 78, 88, 59, 81, 83, 89, 72, 87, 97, 77, 91, 70, 82, 90, 94, 84, 95, 93, 68, 86, 96, 99, 98, 100, 92, 80, 36]);
% time elapsed: 562.03 s
----------
